/* Different sequence LSDSP problem */
min: 5115.0 + 50.0 u - 1.0 C_1 - 1.0 C_2 - 1.0 C_3 - 1.0 C_4 - 1.0 C_5;

/* Definition of the number of production batches Q */
R1: u >= 1 x_1_1;

R2: u >= 1 x_2_1;

R3: u >= 1 x_3_1;

R4: u >= 1 x_4_1;

R5: u >= 1 x_5_1;

R6: u >= 2 x_1_2;

R7: u >= 2 x_2_2;

R8: u >= 2 x_3_2;

R9: u >= 2 x_4_2;

R10: u >= 2 x_5_2;

R11: u >= 3 x_1_3;

R12: u >= 3 x_2_3;

R13: u >= 3 x_3_3;

R14: u >= 3 x_4_3;

R15: u >= 3 x_5_3;

R16: u >= 4 x_1_4;

R17: u >= 4 x_2_4;

R18: u >= 4 x_3_4;

R19: u >= 4 x_4_4;

R20: u >= 4 x_5_4;

R21: u >= 5 x_1_5;

R22: u >= 5 x_2_5;

R23: u >= 5 x_3_5;

R24: u >= 5 x_4_5;

R25: u >= 5 x_5_5;

/* EACH JOB IS ONLY SCHEDULED ONCE */
R26:  x_1_1 +  x_1_2 +  x_1_3 +  x_1_4 +  x_1_5 = 1 ; 

R27:  x_2_1 +  x_2_2 +  x_2_3 +  x_2_4 +  x_2_5 = 1 ; 

R28:  x_3_1 +  x_3_2 +  x_3_3 +  x_3_4 +  x_3_5 = 1 ; 

R29:  x_4_1 +  x_4_2 +  x_4_3 +  x_4_4 +  x_4_5 = 1 ; 

R30:  x_5_1 +  x_5_2 +  x_5_3 +  x_5_4 +  x_5_5 = 1 ; 

/* LIMITATION OF TRANSPORTER CAPACITY*/
R31: 3.0 x_1_1 + 1.0 x_2_1 + 5.0 x_3_1 + 2.0 x_4_1 + 1.0 x_5_1 <= 6.0 ;

R32: 3.0 x_1_2 + 1.0 x_2_2 + 5.0 x_3_2 + 2.0 x_4_2 + 1.0 x_5_2 <= 6.0 ;

R33: 3.0 x_1_3 + 1.0 x_2_3 + 5.0 x_3_3 + 2.0 x_4_3 + 1.0 x_5_3 <= 6.0 ;

R34: 3.0 x_1_4 + 1.0 x_2_4 + 5.0 x_3_4 + 2.0 x_4_4 + 1.0 x_5_4 <= 6.0 ;

R35: 3.0 x_1_5 + 1.0 x_2_5 + 5.0 x_3_5 + 2.0 x_4_5 + 1.0 x_5_5 <= 6.0 ;

/* DUE DATES CONSTRAINTS */
R36: C_1 <= 11000.0 - 10000.0 x_1_1 ;
R37: C_1 <= 11010.0 - 10000.0 x_2_1 ;
R38: C_1 <= 11030.0 - 10000.0 x_3_1 ;
R39: C_1 <= 11030.0 - 10000.0 x_4_1 ;
R40: C_1 <= 11045.0 - 10000.0 x_5_1 ;
R41: C_2 <= 11000.0 - 10000.0 x_1_2 ;
R42: C_2 <= 11010.0 - 10000.0 x_2_2 ;
R43: C_2 <= 11030.0 - 10000.0 x_3_2 ;
R44: C_2 <= 11030.0 - 10000.0 x_4_2 ;
R45: C_2 <= 11045.0 - 10000.0 x_5_2 ;
R46: C_3 <= 11000.0 - 10000.0 x_1_3 ;
R47: C_3 <= 11010.0 - 10000.0 x_2_3 ;
R48: C_3 <= 11030.0 - 10000.0 x_3_3 ;
R49: C_3 <= 11030.0 - 10000.0 x_4_3 ;
R50: C_3 <= 11045.0 - 10000.0 x_5_3 ;
R51: C_4 <= 11000.0 - 10000.0 x_1_4 ;
R52: C_4 <= 11010.0 - 10000.0 x_2_4 ;
R53: C_4 <= 11030.0 - 10000.0 x_3_4 ;
R54: C_4 <= 11030.0 - 10000.0 x_4_4 ;
R55: C_4 <= 11045.0 - 10000.0 x_5_4 ;
R56: C_5 <= 11000.0 - 10000.0 x_1_5 ;
R57: C_5 <= 11010.0 - 10000.0 x_2_5 ;
R58: C_5 <= 11030.0 - 10000.0 x_3_5 ;
R59: C_5 <= 11030.0 - 10000.0 x_4_5 ;
R60: C_5 <= 11045.0 - 10000.0 x_5_5 ;

/* C_{k+1} - C_k >= 	au */
R61: C_2-C_1>= -19950.0 + 10000.0 x_1_1 + 10000.0 x_1_2 ;

R62: C_2-C_1>= -19950.0 + 10000.0 x_1_1 + 10000.0 x_2_2 ;

R63: C_2-C_1>= -19950.0 + 10000.0 x_1_1 + 10000.0 x_3_2 ;

R64: C_2-C_1>= -19950.0 + 10000.0 x_1_1 + 10000.0 x_4_2 ;

R65: C_2-C_1>= -19950.0 + 10000.0 x_1_1 + 10000.0 x_5_2 ;

R66: C_2-C_1>= -19950.0 + 10000.0 x_2_1 + 10000.0 x_1_2 ;

R67: C_2-C_1>= -19950.0 + 10000.0 x_2_1 + 10000.0 x_2_2 ;

R68: C_2-C_1>= -19950.0 + 10000.0 x_2_1 + 10000.0 x_3_2 ;

R69: C_2-C_1>= -19950.0 + 10000.0 x_2_1 + 10000.0 x_4_2 ;

R70: C_2-C_1>= -19950.0 + 10000.0 x_2_1 + 10000.0 x_5_2 ;

R71: C_2-C_1>= -19950.0 + 10000.0 x_3_1 + 10000.0 x_1_2 ;

R72: C_2-C_1>= -19950.0 + 10000.0 x_3_1 + 10000.0 x_2_2 ;

R73: C_2-C_1>= -19950.0 + 10000.0 x_3_1 + 10000.0 x_3_2 ;

R74: C_2-C_1>= -19950.0 + 10000.0 x_3_1 + 10000.0 x_4_2 ;

R75: C_2-C_1>= -19950.0 + 10000.0 x_3_1 + 10000.0 x_5_2 ;

R76: C_2-C_1>= -19950.0 + 10000.0 x_4_1 + 10000.0 x_1_2 ;

R77: C_2-C_1>= -19950.0 + 10000.0 x_4_1 + 10000.0 x_2_2 ;

R78: C_2-C_1>= -19950.0 + 10000.0 x_4_1 + 10000.0 x_3_2 ;

R79: C_2-C_1>= -19950.0 + 10000.0 x_4_1 + 10000.0 x_4_2 ;

R80: C_2-C_1>= -19950.0 + 10000.0 x_4_1 + 10000.0 x_5_2 ;

R81: C_2-C_1>= -19950.0 + 10000.0 x_5_1 + 10000.0 x_1_2 ;

R82: C_2-C_1>= -19950.0 + 10000.0 x_5_1 + 10000.0 x_2_2 ;

R83: C_2-C_1>= -19950.0 + 10000.0 x_5_1 + 10000.0 x_3_2 ;

R84: C_2-C_1>= -19950.0 + 10000.0 x_5_1 + 10000.0 x_4_2 ;

R85: C_2-C_1>= -19950.0 + 10000.0 x_5_1 + 10000.0 x_5_2 ;

R86: C_3-C_2>= -19950.0 + 10000.0 x_1_2 + 10000.0 x_1_3 ;

R87: C_3-C_2>= -19950.0 + 10000.0 x_1_2 + 10000.0 x_2_3 ;

R88: C_3-C_2>= -19950.0 + 10000.0 x_1_2 + 10000.0 x_3_3 ;

R89: C_3-C_2>= -19950.0 + 10000.0 x_1_2 + 10000.0 x_4_3 ;

R90: C_3-C_2>= -19950.0 + 10000.0 x_1_2 + 10000.0 x_5_3 ;

R91: C_3-C_2>= -19950.0 + 10000.0 x_2_2 + 10000.0 x_1_3 ;

R92: C_3-C_2>= -19950.0 + 10000.0 x_2_2 + 10000.0 x_2_3 ;

R93: C_3-C_2>= -19950.0 + 10000.0 x_2_2 + 10000.0 x_3_3 ;

R94: C_3-C_2>= -19950.0 + 10000.0 x_2_2 + 10000.0 x_4_3 ;

R95: C_3-C_2>= -19950.0 + 10000.0 x_2_2 + 10000.0 x_5_3 ;

R96: C_3-C_2>= -19950.0 + 10000.0 x_3_2 + 10000.0 x_1_3 ;

R97: C_3-C_2>= -19950.0 + 10000.0 x_3_2 + 10000.0 x_2_3 ;

R98: C_3-C_2>= -19950.0 + 10000.0 x_3_2 + 10000.0 x_3_3 ;

R99: C_3-C_2>= -19950.0 + 10000.0 x_3_2 + 10000.0 x_4_3 ;

R100: C_3-C_2>= -19950.0 + 10000.0 x_3_2 + 10000.0 x_5_3 ;

R101: C_3-C_2>= -19950.0 + 10000.0 x_4_2 + 10000.0 x_1_3 ;

R102: C_3-C_2>= -19950.0 + 10000.0 x_4_2 + 10000.0 x_2_3 ;

R103: C_3-C_2>= -19950.0 + 10000.0 x_4_2 + 10000.0 x_3_3 ;

R104: C_3-C_2>= -19950.0 + 10000.0 x_4_2 + 10000.0 x_4_3 ;

R105: C_3-C_2>= -19950.0 + 10000.0 x_4_2 + 10000.0 x_5_3 ;

R106: C_3-C_2>= -19950.0 + 10000.0 x_5_2 + 10000.0 x_1_3 ;

R107: C_3-C_2>= -19950.0 + 10000.0 x_5_2 + 10000.0 x_2_3 ;

R108: C_3-C_2>= -19950.0 + 10000.0 x_5_2 + 10000.0 x_3_3 ;

R109: C_3-C_2>= -19950.0 + 10000.0 x_5_2 + 10000.0 x_4_3 ;

R110: C_3-C_2>= -19950.0 + 10000.0 x_5_2 + 10000.0 x_5_3 ;

R111: C_4-C_3>= -19950.0 + 10000.0 x_1_3 + 10000.0 x_1_4 ;

R112: C_4-C_3>= -19950.0 + 10000.0 x_1_3 + 10000.0 x_2_4 ;

R113: C_4-C_3>= -19950.0 + 10000.0 x_1_3 + 10000.0 x_3_4 ;

R114: C_4-C_3>= -19950.0 + 10000.0 x_1_3 + 10000.0 x_4_4 ;

R115: C_4-C_3>= -19950.0 + 10000.0 x_1_3 + 10000.0 x_5_4 ;

R116: C_4-C_3>= -19950.0 + 10000.0 x_2_3 + 10000.0 x_1_4 ;

R117: C_4-C_3>= -19950.0 + 10000.0 x_2_3 + 10000.0 x_2_4 ;

R118: C_4-C_3>= -19950.0 + 10000.0 x_2_3 + 10000.0 x_3_4 ;

R119: C_4-C_3>= -19950.0 + 10000.0 x_2_3 + 10000.0 x_4_4 ;

R120: C_4-C_3>= -19950.0 + 10000.0 x_2_3 + 10000.0 x_5_4 ;

R121: C_4-C_3>= -19950.0 + 10000.0 x_3_3 + 10000.0 x_1_4 ;

R122: C_4-C_3>= -19950.0 + 10000.0 x_3_3 + 10000.0 x_2_4 ;

R123: C_4-C_3>= -19950.0 + 10000.0 x_3_3 + 10000.0 x_3_4 ;

R124: C_4-C_3>= -19950.0 + 10000.0 x_3_3 + 10000.0 x_4_4 ;

R125: C_4-C_3>= -19950.0 + 10000.0 x_3_3 + 10000.0 x_5_4 ;

R126: C_4-C_3>= -19950.0 + 10000.0 x_4_3 + 10000.0 x_1_4 ;

R127: C_4-C_3>= -19950.0 + 10000.0 x_4_3 + 10000.0 x_2_4 ;

R128: C_4-C_3>= -19950.0 + 10000.0 x_4_3 + 10000.0 x_3_4 ;

R129: C_4-C_3>= -19950.0 + 10000.0 x_4_3 + 10000.0 x_4_4 ;

R130: C_4-C_3>= -19950.0 + 10000.0 x_4_3 + 10000.0 x_5_4 ;

R131: C_4-C_3>= -19950.0 + 10000.0 x_5_3 + 10000.0 x_1_4 ;

R132: C_4-C_3>= -19950.0 + 10000.0 x_5_3 + 10000.0 x_2_4 ;

R133: C_4-C_3>= -19950.0 + 10000.0 x_5_3 + 10000.0 x_3_4 ;

R134: C_4-C_3>= -19950.0 + 10000.0 x_5_3 + 10000.0 x_4_4 ;

R135: C_4-C_3>= -19950.0 + 10000.0 x_5_3 + 10000.0 x_5_4 ;

R136: C_5-C_4>= -19950.0 + 10000.0 x_1_4 + 10000.0 x_1_5 ;

R137: C_5-C_4>= -19950.0 + 10000.0 x_1_4 + 10000.0 x_2_5 ;

R138: C_5-C_4>= -19950.0 + 10000.0 x_1_4 + 10000.0 x_3_5 ;

R139: C_5-C_4>= -19950.0 + 10000.0 x_1_4 + 10000.0 x_4_5 ;

R140: C_5-C_4>= -19950.0 + 10000.0 x_1_4 + 10000.0 x_5_5 ;

R141: C_5-C_4>= -19950.0 + 10000.0 x_2_4 + 10000.0 x_1_5 ;

R142: C_5-C_4>= -19950.0 + 10000.0 x_2_4 + 10000.0 x_2_5 ;

R143: C_5-C_4>= -19950.0 + 10000.0 x_2_4 + 10000.0 x_3_5 ;

R144: C_5-C_4>= -19950.0 + 10000.0 x_2_4 + 10000.0 x_4_5 ;

R145: C_5-C_4>= -19950.0 + 10000.0 x_2_4 + 10000.0 x_5_5 ;

R146: C_5-C_4>= -19950.0 + 10000.0 x_3_4 + 10000.0 x_1_5 ;

R147: C_5-C_4>= -19950.0 + 10000.0 x_3_4 + 10000.0 x_2_5 ;

R148: C_5-C_4>= -19950.0 + 10000.0 x_3_4 + 10000.0 x_3_5 ;

R149: C_5-C_4>= -19950.0 + 10000.0 x_3_4 + 10000.0 x_4_5 ;

R150: C_5-C_4>= -19950.0 + 10000.0 x_3_4 + 10000.0 x_5_5 ;

R151: C_5-C_4>= -19950.0 + 10000.0 x_4_4 + 10000.0 x_1_5 ;

R152: C_5-C_4>= -19950.0 + 10000.0 x_4_4 + 10000.0 x_2_5 ;

R153: C_5-C_4>= -19950.0 + 10000.0 x_4_4 + 10000.0 x_3_5 ;

R154: C_5-C_4>= -19950.0 + 10000.0 x_4_4 + 10000.0 x_4_5 ;

R155: C_5-C_4>= -19950.0 + 10000.0 x_4_4 + 10000.0 x_5_5 ;

R156: C_5-C_4>= -19950.0 + 10000.0 x_5_4 + 10000.0 x_1_5 ;

R157: C_5-C_4>= -19950.0 + 10000.0 x_5_4 + 10000.0 x_2_5 ;

R158: C_5-C_4>= -19950.0 + 10000.0 x_5_4 + 10000.0 x_3_5 ;

R159: C_5-C_4>= -19950.0 + 10000.0 x_5_4 + 10000.0 x_4_5 ;

R160: C_5-C_4>= -19950.0 + 10000.0 x_5_4 + 10000.0 x_5_5 ;


/* C_k<= x_{ik}.M : If a batch is empty, then the completion time of this batch is 0.  */
R161: C_1<= 10000.0 x_1_1 + 10000.0 x_2_1 + 10000.0 x_3_1 + 10000.0 x_4_1 + 10000.0 x_5_1;
R162: C_2<= 10000.0 x_1_2 + 10000.0 x_2_2 + 10000.0 x_3_2 + 10000.0 x_4_2 + 10000.0 x_5_2;
R163: C_3<= 10000.0 x_1_3 + 10000.0 x_2_3 + 10000.0 x_3_3 + 10000.0 x_4_3 + 10000.0 x_5_3;
R164: C_4<= 10000.0 x_1_4 + 10000.0 x_2_4 + 10000.0 x_3_4 + 10000.0 x_4_4 + 10000.0 x_5_4;
R165: C_5<= 10000.0 x_1_5 + 10000.0 x_2_5 + 10000.0 x_3_5 + 10000.0 x_4_5 + 10000.0 x_5_5;

/* C_k>=0 */
R166: C_1>=0;
R167: C_2>=0;
R168: C_3>=0;
R169: C_4>=0;
R170: C_5>=0;

/* Binary variables x_{ik} */
bin  x_1_1, x_1_2, x_1_3, x_1_4, x_1_5;
bin  x_2_1, x_2_2, x_2_3, x_2_4, x_2_5;
bin  x_3_1, x_3_2, x_3_3, x_3_4, x_3_5;
bin  x_4_1, x_4_2, x_4_3, x_4_4, x_4_5;
bin  x_5_1, x_5_2, x_5_3, x_5_4, x_5_5;

